8 8
  0	7	1	36	2	38	3	45	4	81	5	67	6	5	7	54	
  0	11	1	43	2	47	3	3	4	50	5	9	6	90	7	45	
  0	25	1	57	2	74	3	98	4	33	5	21	6	60	7	98	
  0	30	1	89	2	87	3	45	4	25	5	21	6	17	7	79	
  0	47	1	3	2	88	3	94	4	37	5	25	6	91	7	73	
  0	89	1	80	2	42	3	70	4	2	5	44	6	49	7	93	
  0	10	1	97	2	8	3	4	4	91	5	26	6	73	7	39	
  0	67	1	94	2	79	3	49	4	74	5	69	6	32	7	14	
